c CNF-Signature AND_15
c 
c $p 15 1
c $m (1,2,3,4,5,6,7,8,9,10,11,12,13,14,15,16)
c $i 1
c $i 2
c $i 3
c $i 4
c $i 5
c $i 6
c $i 7
c $i 8
c $i 9
c $i 10
c $i 11
c $i 12
c $i 13
c $i 14
c $i 15
c $o 16
p cnf 16 16
1 -16 0
2 -16 0
3 -16 0
4 -16 0
5 -16 0
6 -16 0
7 -16 0
8 -16 0
9 -16 0
10 -16 0
11 -16 0
12 -16 0
13 -16 0
14 -16 0
15 -16 0
-1 -2 -3 -4 -5 -6 -7 -8 -9 -10 -11 -12 -13 -14 -15 16 0
